p cnf 12 50 
2 1 7 0
9 1 -5 0
-12 8 11 0
7 10 11 0
-4 1 6 0
2 5 -7 0
-6 12 -9 0
8 4 -2 0
-3 -6 -2 0
-1 9 5 0
-7 10 -12 0
5 8 1 0
-6 -12 10 0
-3 -6 10 0
10 7 -4 0
-8 -3 -11 0
-2 -12 9 0
-9 6 -11 0
-12 -6 -11 0
12 -4 -9 0
-6 -5 4 0
-2 3 1 0
-10 -8 -9 0
-5 6 -11 0
-5 -12 -6 0
-8 -2 -6 0
-3 -4 1 0
-7 -1 -4 0
11 3 -7 0
10 -5 2 0
-2 12 5 0
-4 -3 2 0
-7 10 12 0
-7 10 1 0
-10 5 -12 0
1 -3 7 0
-5 10 7 0
10 -9 12 0
-7 11 8 0
-12 9 -8 0
7 -4 -2 0
3 -12 -7 0
-7 1 -12 0
6 3 -11 0
-12 -2 4 0
-4 7 -5 0
4 -2 -1 0
1 -8 12 0
12 4 9 0
-5 8 11 0
